NAME 
OBJSENSE MAX
ROWS
 N  OBJ
 L  packing[0]
 L  packing[1]
 L  packing[2]
 L  packing[3]
 L  packing[4]
 L  packing[5]
 L  packing[6]
 L  packing[7]
 L  packing[8]
 L  packing[9]
 L  packing[10]
 L  packing[11]
 L  packing[12]
 L  packing[13]
 L  packing[14]
 L  packing[15]
 L  packing[16]
 L  packing[17]
 L  packing[18]
 L  packing[19]
 L  packing[20]
 L  packing[21]
 L  packing[22]
 L  packing[23]
 L  packing[24]
 L  packing[25]
 L  packing[26]
 L  packing[27]
 L  packing[28]
 L  packing[29]
 L  packing[30]
 L  packing[31]
 L  packing[32]
 L  packing[33]
 L  packing[34]
 L  packing[35]
 L  packing[36]
 L  packing[37]
 L  packing[38]
 L  packing[39]
 L  packing[40]
 L  packing[41]
 L  packing[42]
 L  packing[43]
 L  packing[44]
 L  packing[45]
 L  packing[46]
 L  packing[47]
 L  packing[48]
 L  packing[49]
 L  R51     
COLUMNS
    MARKER    'MARKER'                 'INTORG'
    x[1]      OBJ       6
    x[1]      packing[0]  118
    x[1]      packing[1]  106
    x[1]      packing[2]  87
    x[1]      packing[3]  115
    x[1]      packing[4]  53
    x[1]      packing[5]  159
    x[1]      packing[6]  163
    x[1]      packing[8]  100
    x[1]      packing[9]  99
    x[1]      packing[10]  16
    x[1]      packing[12]  131
    x[1]      packing[13]  155
    x[1]      packing[15]  14
    x[1]      packing[16]  147
    x[1]      packing[17]  94
    x[1]      packing[18]  105
    x[1]      packing[19]  11
    x[1]      packing[20]  23
    x[1]      packing[21]  143
    x[1]      packing[22]  117
    x[1]      packing[26]  184
    x[1]      packing[27]  108
    x[1]      packing[28]  139
    x[1]      packing[29]  98
    x[1]      packing[30]  75
    x[1]      packing[31]  69
    x[1]      packing[32]  148
    x[1]      packing[34]  96
    x[1]      packing[36]  144
    x[1]      packing[37]  84
    x[1]      packing[41]  88
    x[1]      packing[42]  73
    x[1]      packing[43]  114
    x[1]      packing[44]  45
    x[1]      packing[45]  168
    x[1]      packing[46]  28
    x[1]      packing[47]  127
    x[1]      packing[49]  183
    x[2]      OBJ       48
    x[2]      packing[0]  12
    x[2]      packing[1]  60
    x[2]      packing[4]  185
    x[2]      packing[5]  166
    x[2]      packing[7]  78
    x[2]      packing[8]  58
    x[2]      packing[9]  28
    x[2]      packing[11]  65
    x[2]      packing[12]  184
    x[2]      packing[13]  167
    x[2]      packing[14]  65
    x[2]      packing[16]  16
    x[2]      packing[17]  117
    x[2]      packing[19]  98
    x[2]      packing[20]  85
    x[2]      packing[21]  108
    x[2]      packing[22]  156
    x[2]      packing[23]  31
    x[2]      packing[24]  84
    x[2]      packing[25]  34
    x[2]      packing[26]  71
    x[2]      packing[27]  47
    x[2]      packing[28]  63
    x[2]      packing[31]  92
    x[2]      packing[32]  33
    x[2]      packing[33]  61
    x[2]      packing[34]  28
    x[2]      packing[36]  84
    x[2]      packing[37]  152
    x[2]      packing[38]  64
    x[2]      packing[39]  84
    x[2]      packing[40]  120
    x[2]      packing[41]  145
    x[2]      packing[43]  127
    x[2]      packing[44]  31
    x[2]      packing[45]  12
    x[2]      packing[47]  124
    x[2]      packing[48]  35
    x[3]      OBJ       51
    x[3]      packing[2]  16
    x[3]      packing[3]  78
    x[3]      packing[4]  178
    x[3]      packing[5]  58
    x[3]      packing[7]  133
    x[3]      packing[8]  69
    x[3]      packing[9]  72
    x[3]      packing[10]  63
    x[3]      packing[11]  23
    x[3]      packing[12]  158
    x[3]      packing[13]  53
    x[3]      packing[14]  175
    x[3]      packing[16]  195
    x[3]      packing[17]  135
    x[3]      packing[18]  154
    x[3]      packing[19]  44
    x[3]      packing[20]  48
    x[3]      packing[21]  151
    x[3]      packing[22]  50
    x[3]      packing[23]  194
    x[3]      packing[24]  64
    x[3]      packing[26]  71
    x[3]      packing[27]  115
    x[3]      packing[32]  103
    x[3]      packing[33]  121
    x[3]      packing[37]  18
    x[3]      packing[40]  127
    x[3]      packing[42]  196
    x[3]      packing[43]  58
    x[3]      packing[44]  162
    x[3]      packing[45]  19
    x[3]      packing[46]  168
    x[3]      packing[47]  184
    x[3]      packing[48]  6
    x[3]      packing[49]  45
    x[4]      OBJ       185
    x[4]      packing[0]  158
    x[4]      packing[1]  93
    x[4]      packing[2]  26
    x[4]      packing[3]  9
    x[4]      packing[4]  105
    x[4]      packing[6]  153
    x[4]      packing[7]  184
    x[4]      packing[9]  153
    x[4]      packing[10]  171
    x[4]      packing[11]  39
    x[4]      packing[12]  110
    x[4]      packing[13]  122
    x[4]      packing[16]  130
    x[4]      packing[18]  155
    x[4]      packing[19]  27
    x[4]      packing[20]  180
    x[4]      packing[21]  81
    x[4]      packing[22]  43
    x[4]      packing[23]  96
    x[4]      packing[24]  109
    x[4]      packing[25]  7
    x[4]      packing[26]  26
    x[4]      packing[27]  77
    x[4]      packing[28]  71
    x[4]      packing[30]  110
    x[4]      packing[31]  60
    x[4]      packing[32]  17
    x[4]      packing[33]  77
    x[4]      packing[34]  21
    x[4]      packing[35]  93
    x[4]      packing[36]  39
    x[4]      packing[37]  184
    x[4]      packing[38]  174
    x[4]      packing[40]  158
    x[4]      packing[41]  71
    x[4]      packing[42]  43
    x[4]      packing[43]  57
    x[4]      packing[44]  111
    x[4]      packing[45]  51
    x[4]      packing[48]  33
    x[4]      packing[49]  145
    x[5]      OBJ       60
    x[5]      packing[0]  45
    x[5]      packing[1]  158
    x[5]      packing[2]  69
    x[5]      packing[3]  167
    x[5]      packing[4]  192
    x[5]      packing[5]  71
    x[5]      packing[6]  60
    x[5]      packing[7]  10
    x[5]      packing[10]  167
    x[5]      packing[12]  190
    x[5]      packing[13]  153
    x[5]      packing[14]  160
    x[5]      packing[15]  153
    x[5]      packing[18]  57
    x[5]      packing[19]  47
    x[5]      packing[20]  91
    x[5]      packing[21]  112
    x[5]      packing[22]  19
    x[5]      packing[24]  178
    x[5]      packing[25]  174
    x[5]      packing[26]  62
    x[5]      packing[27]  108
    x[5]      packing[28]  116
    x[5]      packing[29]  69
    x[5]      packing[30]  123
    x[5]      packing[31]  76
    x[5]      packing[33]  28
    x[5]      packing[34]  193
    x[5]      packing[35]  129
    x[5]      packing[36]  86
    x[5]      packing[37]  85
    x[5]      packing[38]  135
    x[5]      packing[39]  110
    x[5]      packing[40]  36
    x[5]      packing[42]  80
    x[5]      packing[43]  52
    x[5]      packing[44]  93
    x[5]      packing[45]  175
    x[5]      packing[46]  19
    x[5]      packing[47]  170
    x[5]      packing[48]  110
    x[5]      packing[49]  179
    x[6]      OBJ       173
    x[6]      packing[0]  17
    x[6]      packing[2]  117
    x[6]      packing[3]  160
    x[6]      packing[4]  79
    x[6]      packing[5]  13
    x[6]      packing[6]  195
    x[6]      packing[7]  184
    x[6]      packing[8]  116
    x[6]      packing[10]  136
    x[6]      packing[11]  166
    x[6]      packing[12]  109
    x[6]      packing[14]  107
    x[6]      packing[15]  181
    x[6]      packing[17]  88
    x[6]      packing[18]  44
    x[6]      packing[19]  112
    x[6]      packing[21]  108
    x[6]      packing[22]  66
    x[6]      packing[23]  49
    x[6]      packing[24]  109
    x[6]      packing[27]  161
    x[6]      packing[28]  188
    x[6]      packing[29]  21
    x[6]      packing[30]  80
    x[6]      packing[31]  17
    x[6]      packing[33]  68
    x[6]      packing[34]  120
    x[6]      packing[35]  86
    x[6]      packing[38]  39
    x[6]      packing[39]  26
    x[6]      packing[40]  53
    x[6]      packing[42]  79
    x[6]      packing[43]  85
    x[6]      packing[46]  97
    x[6]      packing[48]  18
    x[6]      packing[49]  181
    x[6]      R51       1
    x[7]      OBJ       92
    x[7]      packing[1]  106
    x[7]      packing[2]  139
    x[7]      packing[3]  130
    x[7]      packing[4]  145
    x[7]      packing[6]  175
    x[7]      packing[7]  38
    x[7]      packing[10]  122
    x[7]      packing[12]  59
    x[7]      packing[14]  86
    x[7]      packing[15]  66
    x[7]      packing[16]  164
    x[7]      packing[17]  66
    x[7]      packing[18]  64
    x[7]      packing[19]  148
    x[7]      packing[20]  33
    x[7]      packing[23]  44
    x[7]      packing[24]  21
    x[7]      packing[25]  46
    x[7]      packing[28]  66
    x[7]      packing[29]  166
    x[7]      packing[30]  55
    x[7]      packing[31]  69
    x[7]      packing[32]  125
    x[7]      packing[33]  47
    x[7]      packing[34]  50
    x[7]      packing[35]  190
    x[7]      packing[36]  39
    x[7]      packing[37]  130
    x[7]      packing[38]  29
    x[7]      packing[40]  164
    x[7]      packing[41]  113
    x[7]      packing[42]  38
    x[7]      packing[43]  2
    x[7]      packing[44]  67
    x[7]      packing[45]  149
    x[7]      packing[48]  169
    x[7]      packing[49]  195
    x[8]      OBJ       52
    x[8]      packing[0]  109
    x[8]      packing[1]  113
    x[8]      packing[2]  80
    x[8]      packing[3]  49
    x[8]      packing[4]  193
    x[8]      packing[5]  76
    x[8]      packing[6]  35
    x[8]      packing[7]  80
    x[8]      packing[9]  128
    x[8]      packing[10]  74
    x[8]      packing[12]  108
    x[8]      packing[13]  29
    x[8]      packing[14]  126
    x[8]      packing[17]  4
    x[8]      packing[18]  113
    x[8]      packing[19]  198
    x[8]      packing[20]  53
    x[8]      packing[21]  120
    x[8]      packing[22]  56
    x[8]      packing[24]  153
    x[8]      packing[25]  93
    x[8]      packing[26]  182
    x[8]      packing[27]  23
    x[8]      packing[29]  21
    x[8]      packing[30]  152
    x[8]      packing[33]  150
    x[8]      packing[34]  31
    x[8]      packing[35]  166
    x[8]      packing[36]  188
    x[8]      packing[37]  24
    x[8]      packing[38]  16
    x[8]      packing[40]  156
    x[8]      packing[41]  75
    x[8]      packing[42]  157
    x[8]      packing[43]  162
    x[8]      packing[44]  59
    x[8]      packing[45]  66
    x[8]      packing[46]  118
    x[8]      packing[47]  131
    x[8]      packing[48]  150
    x[8]      packing[49]  128
    x[9]      OBJ       114
    x[9]      packing[0]  189
    x[9]      packing[2]  75
    x[9]      packing[3]  172
    x[9]      packing[4]  30
    x[9]      packing[5]  58
    x[9]      packing[6]  104
    x[9]      packing[8]  152
    x[9]      packing[9]  90
    x[9]      packing[10]  104
    x[9]      packing[11]  135
    x[9]      packing[12]  40
    x[9]      packing[15]  158
    x[9]      packing[16]  53
    x[9]      packing[18]  176
    x[9]      packing[19]  135
    x[9]      packing[20]  166
    x[9]      packing[21]  194
    x[9]      packing[22]  51
    x[9]      packing[23]  182
    x[9]      packing[24]  62
    x[9]      packing[25]  114
    x[9]      packing[26]  145
    x[9]      packing[27]  2
    x[9]      packing[29]  189
    x[9]      packing[30]  23
    x[9]      packing[32]  130
    x[9]      packing[33]  30
    x[9]      packing[34]  190
    x[9]      packing[35]  12
    x[9]      packing[36]  39
    x[9]      packing[38]  7
    x[9]      packing[39]  142
    x[9]      packing[40]  36
    x[9]      packing[41]  118
    x[9]      packing[42]  119
    x[9]      packing[43]  42
    x[9]      packing[44]  198
    x[9]      packing[46]  166
    x[9]      packing[47]  124
    x[9]      packing[48]  111
    x[9]      packing[49]  165
    x[9]      R51       1
    x[10]     OBJ       189
    x[10]     packing[0]  101
    x[10]     packing[2]  3
    x[10]     packing[3]  155
    x[10]     packing[5]  84
    x[10]     packing[6]  107
    x[10]     packing[8]  113
    x[10]     packing[9]  121
    x[10]     packing[10]  86
    x[10]     packing[11]  52
    x[10]     packing[12]  120
    x[10]     packing[13]  47
    x[10]     packing[14]  37
    x[10]     packing[15]  98
    x[10]     packing[17]  182
    x[10]     packing[19]  117
    x[10]     packing[20]  13
    x[10]     packing[21]  80
    x[10]     packing[22]  33
    x[10]     packing[23]  178
    x[10]     packing[25]  194
    x[10]     packing[26]  187
    x[10]     packing[27]  87
    x[10]     packing[28]  131
    x[10]     packing[30]  183
    x[10]     packing[32]  154
    x[10]     packing[33]  164
    x[10]     packing[34]  19
    x[10]     packing[35]  38
    x[10]     packing[36]  23
    x[10]     packing[37]  130
    x[10]     packing[38]  43
    x[10]     packing[39]  134
    x[10]     packing[40]  133
    x[10]     packing[41]  152
    x[10]     packing[42]  147
    x[10]     packing[43]  167
    x[10]     packing[44]  102
    x[10]     packing[45]  19
    x[10]     packing[46]  36
    x[10]     packing[48]  57
    x[10]     packing[49]  75
    x[10]     R51       1
    x[11]     OBJ       71
    x[11]     packing[1]  149
    x[11]     packing[3]  62
    x[11]     packing[4]  32
    x[11]     packing[5]  144
    x[11]     packing[6]  145
    x[11]     packing[7]  169
    x[11]     packing[9]  109
    x[11]     packing[11]  137
    x[11]     packing[12]  187
    x[11]     packing[13]  187
    x[11]     packing[14]  36
    x[11]     packing[15]  151
    x[11]     packing[17]  81
    x[11]     packing[18]  95
    x[11]     packing[19]  101
    x[11]     packing[20]  75
    x[11]     packing[22]  139
    x[11]     packing[23]  129
    x[11]     packing[24]  70
    x[11]     packing[25]  25
    x[11]     packing[26]  18
    x[11]     packing[28]  111
    x[11]     packing[30]  103
    x[11]     packing[31]  10
    x[11]     packing[32]  60
    x[11]     packing[34]  60
    x[11]     packing[35]  39
    x[11]     packing[36]  122
    x[11]     packing[37]  88
    x[11]     packing[38]  34
    x[11]     packing[41]  33
    x[11]     packing[44]  105
    x[11]     packing[45]  66
    x[11]     packing[46]  52
    x[11]     packing[48]  175
    x[11]     packing[49]  16
    x[12]     OBJ       5
    x[12]     packing[0]  97
    x[12]     packing[2]  89
    x[12]     packing[3]  58
    x[12]     packing[4]  128
    x[12]     packing[5]  190
    x[12]     packing[6]  130
    x[12]     packing[7]  22
    x[12]     packing[11]  13
    x[12]     packing[12]  53
    x[12]     packing[13]  89
    x[12]     packing[14]  121
    x[12]     packing[15]  58
    x[12]     packing[16]  178
    x[12]     packing[18]  70
    x[12]     packing[19]  72
    x[12]     packing[21]  127
    x[12]     packing[22]  43
    x[12]     packing[23]  88
    x[12]     packing[24]  120
    x[12]     packing[25]  56
    x[12]     packing[27]  53
    x[12]     packing[28]  142
    x[12]     packing[30]  194
    x[12]     packing[31]  70
    x[12]     packing[34]  135
    x[12]     packing[35]  67
    x[12]     packing[36]  163
    x[12]     packing[37]  42
    x[12]     packing[38]  147
    x[12]     packing[39]  92
    x[12]     packing[42]  19
    x[12]     packing[43]  183
    x[12]     packing[44]  181
    x[12]     packing[45]  147
    x[12]     packing[46]  164
    x[12]     packing[47]  33
    x[12]     packing[48]  123
    x[13]     OBJ       106
    x[13]     packing[0]  186
    x[13]     packing[1]  159
    x[13]     packing[2]  124
    x[13]     packing[4]  60
    x[13]     packing[5]  23
    x[13]     packing[6]  50
    x[13]     packing[7]  179
    x[13]     packing[9]  151
    x[13]     packing[10]  119
    x[13]     packing[11]  1
    x[13]     packing[13]  20
    x[13]     packing[14]  197
    x[13]     packing[15]  55
    x[13]     packing[16]  92
    x[13]     packing[17]  151
    x[13]     packing[18]  30
    x[13]     packing[19]  166
    x[13]     packing[20]  182
    x[13]     packing[21]  101
    x[13]     packing[23]  68
    x[13]     packing[24]  55
    x[13]     packing[26]  67
    x[13]     packing[29]  174
    x[13]     packing[30]  43
    x[13]     packing[31]  68
    x[13]     packing[32]  31
    x[13]     packing[33]  128
    x[13]     packing[34]  7
    x[13]     packing[35]  113
    x[13]     packing[36]  55
    x[13]     packing[39]  16
    x[13]     packing[42]  183
    x[13]     packing[43]  100
    x[13]     packing[44]  150
    x[13]     packing[46]  98
    x[13]     packing[47]  140
    x[13]     packing[48]  86
    x[13]     packing[49]  169
    x[14]     OBJ       15
    x[14]     packing[0]  35
    x[14]     packing[1]  23
    x[14]     packing[3]  171
    x[14]     packing[4]  103
    x[14]     packing[6]  82
    x[14]     packing[7]  139
    x[14]     packing[8]  99
    x[14]     packing[12]  91
    x[14]     packing[14]  144
    x[14]     packing[15]  62
    x[14]     packing[16]  154
    x[14]     packing[18]  176
    x[14]     packing[19]  69
    x[14]     packing[20]  113
    x[14]     packing[21]  186
    x[14]     packing[22]  19
    x[14]     packing[23]  43
    x[14]     packing[24]  178
    x[14]     packing[25]  39
    x[14]     packing[26]  52
    x[14]     packing[27]  14
    x[14]     packing[28]  34
    x[14]     packing[29]  89
    x[14]     packing[30]  198
    x[14]     packing[32]  173
    x[14]     packing[34]  68
    x[14]     packing[35]  177
    x[14]     packing[36]  116
    x[14]     packing[38]  121
    x[14]     packing[39]  43
    x[14]     packing[40]  160
    x[14]     packing[41]  97
    x[14]     packing[42]  188
    x[14]     packing[43]  24
    x[14]     packing[44]  193
    x[14]     packing[46]  122
    x[14]     packing[47]  161
    x[14]     packing[48]  19
    x[14]     packing[49]  6
    x[15]     OBJ       122
    x[15]     packing[2]  189
    x[15]     packing[3]  12
    x[15]     packing[4]  128
    x[15]     packing[5]  79
    x[15]     packing[7]  29
    x[15]     packing[8]  127
    x[15]     packing[9]  22
    x[15]     packing[10]  14
    x[15]     packing[11]  50
    x[15]     packing[13]  131
    x[15]     packing[15]  116
    x[15]     packing[16]  85
    x[15]     packing[17]  112
    x[15]     packing[18]  117
    x[15]     packing[19]  48
    x[15]     packing[20]  60
    x[15]     packing[21]  150
    x[15]     packing[23]  31
    x[15]     packing[24]  82
    x[15]     packing[25]  79
    x[15]     packing[26]  198
    x[15]     packing[27]  151
    x[15]     packing[28]  14
    x[15]     packing[29]  38
    x[15]     packing[30]  199
    x[15]     packing[31]  114
    x[15]     packing[32]  1
    x[15]     packing[33]  15
    x[15]     packing[34]  66
    x[15]     packing[36]  126
    x[15]     packing[37]  21
    x[15]     packing[38]  185
    x[15]     packing[40]  142
    x[15]     packing[41]  182
    x[15]     packing[42]  81
    x[15]     packing[43]  146
    x[15]     packing[44]  77
    x[15]     packing[45]  120
    x[15]     packing[46]  20
    x[15]     packing[47]  140
    x[15]     packing[48]  120
    x[15]     packing[49]  111
    x[15]     R51       1
    x[16]     OBJ       96
    x[16]     packing[0]  103
    x[16]     packing[1]  151
    x[16]     packing[2]  32
    x[16]     packing[4]  34
    x[16]     packing[5]  48
    x[16]     packing[6]  174
    x[16]     packing[7]  99
    x[16]     packing[8]  51
    x[16]     packing[9]  19
    x[16]     packing[10]  138
    x[16]     packing[11]  170
    x[16]     packing[12]  22
    x[16]     packing[13]  16
    x[16]     packing[14]  64
    x[16]     packing[15]  151
    x[16]     packing[16]  121
    x[16]     packing[18]  134
    x[16]     packing[20]  2
    x[16]     packing[21]  76
    x[16]     packing[22]  127
    x[16]     packing[23]  101
    x[16]     packing[25]  175
    x[16]     packing[27]  155
    x[16]     packing[28]  123
    x[16]     packing[29]  12
    x[16]     packing[30]  112
    x[16]     packing[31]  73
    x[16]     packing[32]  60
    x[16]     packing[33]  138
    x[16]     packing[34]  113
    x[16]     packing[35]  38
    x[16]     packing[37]  84
    x[16]     packing[38]  25
    x[16]     packing[39]  34
    x[16]     packing[40]  187
    x[16]     packing[41]  119
    x[16]     packing[42]  168
    x[16]     packing[43]  101
    x[16]     packing[44]  31
    x[16]     packing[46]  173
    x[16]     packing[47]  22
    x[16]     packing[48]  55
    x[16]     packing[49]  173
    x[17]     OBJ       110
    x[17]     packing[1]  11
    x[17]     packing[2]  178
    x[17]     packing[5]  87
    x[17]     packing[6]  167
    x[17]     packing[7]  136
    x[17]     packing[8]  166
    x[17]     packing[11]  124
    x[17]     packing[12]  116
    x[17]     packing[13]  72
    x[17]     packing[14]  1
    x[17]     packing[15]  25
    x[17]     packing[16]  166
    x[17]     packing[17]  92
    x[17]     packing[21]  81
    x[17]     packing[22]  22
    x[17]     packing[23]  88
    x[17]     packing[24]  57
    x[17]     packing[25]  150
    x[17]     packing[26]  154
    x[17]     packing[27]  1
    x[17]     packing[28]  59
    x[17]     packing[29]  66
    x[17]     packing[30]  81
    x[17]     packing[31]  60
    x[17]     packing[32]  3
    x[17]     packing[34]  40
    x[17]     packing[35]  33
    x[17]     packing[37]  108
    x[17]     packing[38]  144
    x[17]     packing[39]  143
    x[17]     packing[40]  189
    x[17]     packing[42]  22
    x[17]     packing[43]  59
    x[17]     packing[46]  85
    x[17]     packing[47]  89
    x[17]     packing[49]  188
    x[17]     R51       1
    x[18]     OBJ       58
    x[18]     packing[0]  52
    x[18]     packing[2]  49
    x[18]     packing[4]  45
    x[18]     packing[5]  116
    x[18]     packing[6]  43
    x[18]     packing[8]  39
    x[18]     packing[9]  147
    x[18]     packing[11]  19
    x[18]     packing[12]  48
    x[18]     packing[13]  169
    x[18]     packing[14]  53
    x[18]     packing[15]  131
    x[18]     packing[16]  89
    x[18]     packing[17]  125
    x[18]     packing[18]  99
    x[18]     packing[19]  195
    x[18]     packing[20]  74
    x[18]     packing[21]  26
    x[18]     packing[22]  123
    x[18]     packing[23]  145
    x[18]     packing[25]  12
    x[18]     packing[26]  172
    x[18]     packing[27]  183
    x[18]     packing[28]  185
    x[18]     packing[29]  12
    x[18]     packing[30]  176
    x[18]     packing[31]  114
    x[18]     packing[32]  127
    x[18]     packing[33]  87
    x[18]     packing[34]  53
    x[18]     packing[35]  33
    x[18]     packing[36]  13
    x[18]     packing[37]  76
    x[18]     packing[38]  105
    x[18]     packing[41]  119
    x[18]     packing[42]  98
    x[18]     packing[43]  61
    x[18]     packing[46]  70
    x[18]     packing[47]  46
    x[18]     packing[48]  75
    x[18]     packing[49]  46
    x[19]     OBJ       3
    x[19]     packing[0]  193
    x[19]     packing[1]  73
    x[19]     packing[2]  99
    x[19]     packing[3]  190
    x[19]     packing[5]  44
    x[19]     packing[7]  101
    x[19]     packing[8]  63
    x[19]     packing[9]  195
    x[19]     packing[11]  182
    x[19]     packing[12]  17
    x[19]     packing[15]  49
    x[19]     packing[16]  43
    x[19]     packing[18]  12
    x[19]     packing[19]  26
    x[19]     packing[20]  176
    x[19]     packing[21]  17
    x[19]     packing[22]  67
    x[19]     packing[23]  75
    x[19]     packing[24]  174
    x[19]     packing[25]  195
    x[19]     packing[26]  164
    x[19]     packing[27]  32
    x[19]     packing[28]  65
    x[19]     packing[29]  80
    x[19]     packing[30]  108
    x[19]     packing[31]  181
    x[19]     packing[32]  79
    x[19]     packing[34]  68
    x[19]     packing[35]  75
    x[19]     packing[36]  86
    x[19]     packing[37]  34
    x[19]     packing[38]  74
    x[19]     packing[39]  24
    x[19]     packing[40]  60
    x[19]     packing[41]  28
    x[19]     packing[44]  148
    x[19]     packing[45]  70
    x[19]     packing[46]  168
    x[19]     packing[47]  57
    x[19]     packing[48]  100
    x[20]     OBJ       9
    x[20]     packing[1]  155
    x[20]     packing[2]  59
    x[20]     packing[3]  47
    x[20]     packing[5]  165
    x[20]     packing[6]  189
    x[20]     packing[7]  37
    x[20]     packing[9]  188
    x[20]     packing[11]  158
    x[20]     packing[13]  166
    x[20]     packing[14]  108
    x[20]     packing[15]  8
    x[20]     packing[17]  165
    x[20]     packing[19]  44
    x[20]     packing[20]  52
    x[20]     packing[21]  162
    x[20]     packing[22]  51
    x[20]     packing[24]  34
    x[20]     packing[25]  167
    x[20]     packing[26]  133
    x[20]     packing[30]  36
    x[20]     packing[31]  126
    x[20]     packing[32]  198
    x[20]     packing[34]  135
    x[20]     packing[35]  139
    x[20]     packing[36]  39
    x[20]     packing[37]  85
    x[20]     packing[38]  195
    x[20]     packing[39]  25
    x[20]     packing[40]  46
    x[20]     packing[41]  119
    x[20]     packing[42]  177
    x[20]     packing[43]  53
    x[20]     packing[44]  147
    x[20]     packing[47]  168
    x[20]     packing[48]  99
    MARKER    'MARKER'                 'INTEND'
RHS
    RHS1      packing[0]  708
    RHS1      packing[1]  679
    RHS1      packing[2]  716
    RHS1      packing[3]  788
    RHS1      packing[4]  845
    RHS1      packing[5]  791
    RHS1      packing[6]  986
    RHS1      packing[7]  809
    RHS1      packing[8]  577
    RHS1      packing[9]  761
    RHS1      packing[10]  605
    RHS1      packing[11]  667
    RHS1      packing[12]  872
    RHS1      packing[13]  788
    RHS1      packing[14]  740
    RHS1      packing[15]  738
    RHS1      packing[16]  817
    RHS1      packing[17]  706
    RHS1      packing[18]  801
    RHS1      packing[19]  829
    RHS1      packing[20]  713
    RHS1      packing[21]  1012
    RHS1      packing[22]  591
    RHS1      packing[23]  771
    RHS1      packing[24]  775
    RHS1      packing[25]  780
    RHS1      packing[26]  943
    RHS1      packing[27]  659
    RHS1      packing[28]  754
    RHS1      packing[29]  518
    RHS1      packing[30]  1026
    RHS1      packing[31]  600
    RHS1      packing[32]  721
    RHS1      packing[33]  557
    RHS1      packing[34]  747
    RHS1      packing[35]  714
    RHS1      packing[36]  681
    RHS1      packing[37]  673
    RHS1      packing[38]  769
    RHS1      packing[39]  437
    RHS1      packing[40]  884
    RHS1      packing[41]  730
    RHS1      packing[42]  934
    RHS1      packing[43]  797
    RHS1      packing[44]  950
    RHS1      packing[45]  531
    RHS1      packing[46]  792
    RHS1      packing[47]  858
    RHS1      packing[48]  771
    RHS1      packing[49]  1003
    RHS1      R51       4
BOUNDS
 BV BND1      x[1]    
 BV BND1      x[2]    
 BV BND1      x[3]    
 BV BND1      x[4]    
 BV BND1      x[5]    
 BV BND1      x[6]    
 BV BND1      x[7]    
 BV BND1      x[8]    
 BV BND1      x[9]    
 BV BND1      x[10]   
 BV BND1      x[11]   
 BV BND1      x[12]   
 BV BND1      x[13]   
 BV BND1      x[14]   
 BV BND1      x[15]   
 BV BND1      x[16]   
 BV BND1      x[17]   
 BV BND1      x[18]   
 BV BND1      x[19]   
 BV BND1      x[20]   
ENDATA
